&CONTROL
 calculation = 'bands'
 prefix = 'MoS2'
 pseudo_dir = '../pseudos'
 outdir = './'
/

&SYSTEM
 ibrav = 0
 A = 1.00 ! in angstrom
 
 ecutwfc =  60.0 ! in Ry

 nat = 6
 ntyp = 2
 
 nbnd = 36
/

&ELECTRONS
 conv_thr = 1.0d-12
 diago_full_acc = .true.
/

CELL_PARAMETERS alat
     3.1475397403694503   -0.0000000000000009    0.0000000000000000
    -1.5737698701847196    2.7258493745810197    0.0000000000000000
    0.0000000000000000    0.0000000000000000   20.0000000000000000

ATOMIC_SPECIES 
  Mo  95.95   Mo.upf
  S   32.066  S.upf

ATOMIC_POSITIONS crystal
  Mo    0.3333329860000021    0.6666669849999991    0.4126130268582878
  Mo    0.6666669849999991    0.3333329860000021    0.7158518858835106
  S    0.6666669849999991    0.3333329860000021    0.3341893333364299
  S    0.6666669849999991    0.3333329860000021    0.4909603512586637
  S    0.3333329860000021    0.6666669849999991    0.6375045602391790
  S    0.3333329860000021    0.6666669849999991    0.7942755595021608
  
K_POINTS crystal_b
  4
  0.000000000000  0.000000000000  0.000000000000  20
  0.333333333333  0.333333333333  0.000000000000  10
  0.500000000000  0.000000000000  0.000000000000  17
  0.000000000000  0.000000000000  0.000000000000  1
